NAME : portcgen-15-2
COMMENT : portcgen N=15, seed=2
TYPE : TSP
DIMENSION : 15
EDGE_WEIGHT_TYPE : EUC_2D
NODE_COORD_SECTION
1 382032 107353
2 652283 173938
3 -37537 -65215
4 -268646 -155634
5 -136273 -177779
6 309994 -373542
7 269369 206383
8 -491303 -115661
9 345986 -84753
10 -93128 288464
11 87644 39054
12 247755 418595
13 -227586 205449
14 -31901 -263703
15 33366 -47036
